TOUR_SECTION
80
56
31
115
160
168
87
19
101
106
89
49
164
133
111
197
47
54
152
68
44
22
171
143
93
85
155
142
8
181
45
35
83
141
126
174
74
161
134
10
67
139
48
172
64
170
162
135
117
57
122
200
136
51
169
128
107
4
179
9
148
42
5
120
156
184
65
28
13
153
182
183
58
194
46
189
199
109
69
196
150
70
110
1
29
12
3
186
193
145
77
198
20
154
91
16
72
114
158
32
6
129
88
103
17
23
173
25
121
27
180
167
95
149
159
125
163
21
132
94
176
14
104
146
99
30
34
192
105
130
190
118
60
63
188
73
84
127
165
53
82
119
81
178
36
24
26
78
177
97
86
147
157
140
37
131
18
71
7
138
38
90
137
2
175
98
195
39
52
55
40
113
116
66
100
79
92
43
166
76
123
191
62
15
59
185
33
41
61
75
96
144
11
108
50
102
124
151
112
187
-1
EOF